************************************************************************
file with basedata            : j9021_.bas
initial value random generator: 2628
************************************************************************
projects                      :  1
jobs (incl. supersource/sink ):  92
horizon                       :  469
RESOURCES
  - renewable                 :  4   R
  - nonrenewable              :  0   N
  - doubly constrained        :  0   D
************************************************************************
PROJECT INFORMATION:
pronr.  #jobs rel.date duedate tardcost  MPM-Time
    1     90      0       76       65       76
************************************************************************
PRECEDENCE RELATIONS:
jobnr.    #modes  #successors   successors
   1        1          3           2   3   4
   2        1          3           9  10  20
   3        1          3          13  16  47
   4        1          3           5  40  64
   5        1          3           6   7  11
   6        1          3           8  14  21
   7        1          2          34  68
   8        1          3          15  67  75
   9        1          3          17  18  65
  10        1          2          41  54
  11        1          3          12  23  35
  12        1          2          29  61
  13        1          3          38  42  66
  14        1          2          27  46
  15        1          3          33  48  50
  16        1          3          22  25  43
  17        1          2          27  70
  18        1          3          19  30  49
  19        1          2          28  32
  20        1          2          55  58
  21        1          2          24  59
  22        1          3          38  69  80
  23        1          2          26  44
  24        1          1          25
  25        1          2          67  76
  26        1          3          28  29  56
  27        1          1          37
  28        1          3          31  48  84
  29        1          3          36  45  81
  30        1          3          36  41  60
  31        1          2          72  83
  32        1          2          34  52
  33        1          2          36  37
  34        1          3          66  71  85
  35        1          3          48  58  68
  36        1          1          73
  37        1          1          39
  38        1          2          51  57
  39        1          1          42
  40        1          3          56  62  85
  41        1          2          46  59
  42        1          1          53
  43        1          2          44  50
  44        1          2          51  66
  45        1          1          83
  46        1          2          52  58
  47        1          3          56  71  79
  48        1          2          81  91
  49        1          1          77
  50        1          2          57  70
  51        1          1          78
  52        1          1          63
  53        1          1          59
  54        1          3          61  77  91
  55        1          2          63  79
  56        1          1          89
  57        1          1          83
  58        1          2          71  72
  59        1          2          77  82
  60        1          1          74
  61        1          3          63  70  90
  62        1          1          65
  63        1          1          67
  64        1          1          68
  65        1          1          80
  66        1          1          90
  67        1          2          69  85
  68        1          1          72
  69        1          1          82
  70        1          1          82
  71        1          1          84
  72        1          1          74
  73        1          1          88
  74        1          1          75
  75        1          2          78  87
  76        1          2          78  87
  77        1          1          89
  78        1          1          91
  79        1          2          80  81
  80        1          1          88
  81        1          1          87
  82        1          1          84
  83        1          1          86
  84        1          1          86
  85        1          1          86
  86        1          1          89
  87        1          1          88
  88        1          1          90
  89        1          1          92
  90        1          1          92
  91        1          1          92
  92        1          0        
************************************************************************
REQUESTS/DURATIONS:
jobnr. mode duration  R 1  R 2  R 3  R 4
------------------------------------------------------------------------
  1      1     0       0    0    0    0
  2      1     1      10    9    0   10
  3      1     4       0    0    1    1
  4      1     1       0    0   10    0
  5      1     9       0    0    5    4
  6      1     1       5    1    6    0
  7      1     3       3    0    0    0
  8      1     7       7    3    6    0
  9      1     9       3    9    5    0
 10      1     2       9    0    7    0
 11      1     8      10    2    8    0
 12      1     5       3    5    0    0
 13      1     8      10    1    0    8
 14      1     1       9    0    7    0
 15      1     8       0    4    0    0
 16      1     6       0    0    0    7
 17      1     9       5    0    4    0
 18      1     2       6    0    2    4
 19      1     2       7    0    2    0
 20      1     9       2   10    3    0
 21      1     1       0    0    7    0
 22      1     1       9    5    8    0
 23      1     9       0    3   10    0
 24      1     5      10    4    4    0
 25      1     5       0    0    9    2
 26      1     6       8   10    0    0
 27      1     1      10    4    0    0
 28      1     2       0    0    0   10
 29      1     9       0    0    4    0
 30      1     5       0    7    6    0
 31      1     2       0    0   10   10
 32      1     5       0    0    4    0
 33      1     9       2    0    0    0
 34      1     6       0    5    6    0
 35      1     6       1    0    0    5
 36      1     6       0    0   10   10
 37      1     7       0    3    2    3
 38      1     1       1    0    0    1
 39      1     5       0    0    0    5
 40      1     3       0    0   10    9
 41      1     5       0    0    7    0
 42      1     4       6    0    0    9
 43      1     2       2    7    9    0
 44      1     1       0    8    9    0
 45      1     9       0    0    0    6
 46      1     3       0    0    2    8
 47      1     5       9    0    0    0
 48      1     7       0   10    0    5
 49      1     7       5    8    0    0
 50      1     7      10    9    4    5
 51      1     4      10    0    0   10
 52      1     9       1    0    6    2
 53      1     1       0    0    5   10
 54      1     6       0    0    0    9
 55      1     9       0    4    0    4
 56      1     9       8   10    3    0
 57      1     2      10    0    5    0
 58      1     8       9    5    0    3
 59      1     7       0    0    6    3
 60      1     8       6    0    0    1
 61      1     5       9    0    0    6
 62      1     5       0    2    0    3
 63      1     5       0    0    0    9
 64      1     7       0    0    6    4
 65      1     6       0    8    9    0
 66      1    10       0    0    9    0
 67      1     8       7    7    0    0
 68      1     2       5    0    7    9
 69      1     9       7   10    0    0
 70      1     4       0    0    0   10
 71      1     3       8    6    5    0
 72      1     6       8    0   10    0
 73      1     9       8    4    0    0
 74      1     8       3    0    3    3
 75      1    10       0    7    3    0
 76      1     8       0    7    0    5
 77      1     5       5    0    0    8
 78      1     5       0   10    0    4
 79      1     1       8    0    0    7
 80      1     2       6    0    0    9
 81      1     6       0    5    9    0
 82      1     3       9    0    0    0
 83      1     4       2    0    0    0
 84      1     5       0    8    0    4
 85      1     3       3    0    0    2
 86      1     2       2    4    0    0
 87      1     1       0    5    0    0
 88      1     6       6    6    0    0
 89      1     7      10    0    7    0
 90      1     5       7    0    8    0
 91      1     7      10    5    0    3
 92      1     0       0    0    0    0
************************************************************************
RESOURCEAVAILABILITIES:
  R 1  R 2  R 3  R 4
   18   16   18   15
************************************************************************
